s td 16 75 90
b 1 1 2 3 4 5 6 7 8 9 10 11 12 13 14 15 16 17 18 19 20 21 22 23 24 25 26 27 29 30 31 32 33 34 35 36 38 42 43 44 46 48 49 50 51 52 53 54 55 56 58 60 61 63 64 65 66 68 70 71 74 75 76 77 78 79 80 81 82 83 84 85 86 87 88 90
b 2 3 4 6 7 8 9 14 16 17 21 22 24 26 28 31 33 35 36 42 44 46 48 50 53 54 58 64 66 70 71 75 76 80 81 82 83 84 85 87 88
b 3 1 2 3 4 5 6 7 8 9 10 11 12 13 14 15 16 17 18 19 20 21 22 23 24 25 26 27 29 30 31 32 33 34 35 36 38 43 44 46 48 49 50 51 52 53 54 55 56 58 60 61 63 64 65 66 68 70 71 73 74 75 76 77 78 79 80 81 82 83 84 85 86 87 88 90
b 4 1 2 3 4 5 6 7 8 9 10 11 12 13 14 15 16 17 18 19 20 21 22 23 24 25 26 27 29 30 31 32 33 35 36 38 43 44 46 48 49 50 51 52 53 54 55 56 58 60 61 63 64 65 66 67 68 70 71 73 74 75 76 77 78 79 80 81 82 83 84 85 86 87 88 90
b 5 1 2 3 4 5 6 7 8 9 10 11 12 13 15 16 17 18 19 20 21 22 23 24 25 26 27 29 30 31 32 33 35 36 38 43 44 46 47 48 49 50 51 52 53 54 55 56 58 60 61 63 64 65 66 67 68 70 71 73 74 75 76 77 78 79 80 81 82 83 84 85 86 87 88 90
b 6 1 2 3 4 5 6 7 8 9 10 11 12 13 15 16 17 18 19 20 21 23 24 25 26 27 29 30 31 32 33 35 36 37 38 43 46 47 48 49 50 51 52 53 54 55 56 58 60 61 63 64 65 67 68 70 71 73 74 75 76 77 78 79 80 81 82 83 85 86 87 88 90
b 7 1 2 3 4 5 6 7 8 9 10 11 12 13 15 16 17 18 19 20 21 23 24 25 26 27 29 30 31 32 33 35 36 37 38 43 46 47 48 49 50 51 52 53 54 55 56 58 60 64 65 67 68 69 70 71 73 74 75 76 77 78 79 80 81 82 83 85 86 87 88 90
b 8 1 2 3 6 7 9 10 12 15 16 18 20 23 25 26 27 29 33 35 37 38 41 47 48 49 51 52 53 56 60 64 68 69 71 75 78 79 80 81 83 85 86 87 88 90
b 9 1 2 3 4 6 8 9 10 11 12 13 15 16 17 23 25 26 29 30 31 32 35 36 38 43 46 47 48 50 52 53 54 55 58 65 67 69 70 71 72 73 74 75 77 79 82 85 86 87
b 10 4 5 6 8 11 12 13 14 15 17 19 21 24 27 33 34 36 38 43 45 48 49 50 52 53 55 60 61 64 66 71 73 74 75 76 78 80 81 85 86 87 88
b 11 1 2 3 4 5 6 7 8 9 10 11 12 13 14 15 16 17 18 19 20 21 22 23 24 25 26 27 29 30 31 32 33 34 35 36 38 42 44 46 48 49 50 51 52 53 54 55 56 58 60 61 62 63 64 65 66 68 70 71 74 75 76 77 78 79 80 81 82 83 84 85 86 87 88 90
b 12 1 2 3 4 5 6 7 8 9 10 11 12 13 14 15 16 17 18 19 20 21 22 23 24 25 26 27 29 30 31 32 33 34 35 36 38 42 44 46 48 49 51 52 53 54 55 56 60 61 62 63 64 65 66 68 70 71 74 75 76 77 78 79 80 81 82 83 84 85 86 87 88 89 90
b 13 1 2 3 4 5 6 7 8 9 10 11 12 13 14 15 17 18 19 20 21 22 23 24 25 26 27 29 30 31 32 33 34 35 36 38 42 44 46 48 49 51 52 53 54 55 56 57 60 61 62 63 64 65 66 68 70 71 74 75 76 77 79 80 81 82 83 84 85 86 87 88 89 90
b 14 1 2 3 4 5 6 7 8 9 10 11 12 13 14 15 17 18 19 20 21 22 23 24 25 26 27 29 31 32 34 35 36 38 39 42 44 46 48 49 51 52 53 54 55 56 57 60 61 63 64 65 66 68 70 71 74 75 76 77 79 80 81 82 83 84 85 86 87 88 89 90
b 15 1 2 3 4 5 6 7 8 9 10 11 12 13 14 15 17 18 19 20 21 22 23 25 26 27 29 31 32 34 35 36 38 39 42 44 46 49 52 53 54 55 56 57 59 60 64 65 66 70 71 74 75 76 77 79 80 81 83 85 86 87 88 89
b 16 1 2 3 5 6 7 10 11 12 13 14 17 18 19 21 23 26 27 31 32 34 35 39 40 42 44 49 52 53 59 60 65 70 74 75 77 80 85 86 88
1 2
1 3
1 11
3 4
3 10
4 5
5 6
6 7
7 8
7 9
11 12
12 13
13 14
14 15
15 16
